ROWS = 4;
COLUMNS = 5;

GRID = [|2,    0.10, 1.20, 0.10, 0.10|
         0.50, 0,    0.60, 0,    2   |
         0.10, 0.20, 2.50, 0.50, 1   |
         0,    0.10, 0,    2,    1.20|];
         
N = 4;
BOMBS = [|2, 2|
          2, 4|
          4, 1|
          4, 3|];